nNurses = 153;
nHours = 35;
minHours = 4;
maxHours = 14;
maxConsec = 10;
maxPresence = 13;
demand = [20, 20, 25, 20, 15, 20, 16, 11, 6, 8, 13, 17, 21, 24, 19, 19, 19, 21, 20, 20, 19, 18, 20, 15, 11, 6, 6, 11, 7, 5, 8, 5, 7, 5, 6];
